0 87 
1 88 
2 89 
3 87 
4 84 
5 85 
6 83 
7 83 
8 81 
9 79 
10 77 
11 79 
12 81 
13 81 
14 77 
15 74 
16 71 
17 72 
18 70 
19 70 
20 70 
21 68 
22 69 
23 67 
24 67 
25 65 
26 62 
27 64 
28 61 
29 59 
30 59 
31 55 
32 54 
33 50 
34 53 
35 50 
36 47 
37 45 
38 45 
39 46 
40 42 
41 41 
42 37 
43 39 
44 40 
45 39 
46 37 
47 38 
48 37 
49 37 
50 35 
51 32 
52 29 
53 29 
54 27 
55 25 
56 22 
57 23 
58 20 
59 20 
60 22 
61 25 
62 21 
63 20 
64 21 
65 19 
66 19 
67 17 
68 16 
69 15 
70 14 
71 11 
72 9 
73 10 
74 9 
75 9 
76 6 
77 6 
78 4 
79 2 
80 1 
81 1 
82 0 
83 0 

